(declare-fun var0 () String)
(assert (str.in.re var0 (re.++ (re.* (re.+ (re.union (re.* (re.+ (re.union (re.union (re.union (re.+ (re.union (re.* (re.union (re.* (str.to.re "h")) (re.+ (str.to.re "i")))) (re.union (re.union (re.union (str.to.re "jjj") (str.to.re "k")) (re.union (str.to.re "lll") (str.to.re "mmm"))) (re.+ (re.union (str.to.re "nn") (str.to.re "ooo")))))) (re.union (re.* (re.+ (re.union (re.* (str.to.re "ppp")) (re.+ (str.to.re "qq"))))) (re.* (re.union (re.union (re.* (str.to.re "rrr")) (re.+ (str.to.re "sss"))) (re.union (re.* (str.to.re "tt")) (re.+ (str.to.re "uuu"))))))) (re.+ (re.union (re.+ (re.* (re.+ (re.union (str.to.re "v") (str.to.re "w"))))) (re.union (re.+ (re.union (re.union (str.to.re "xx") (str.to.re "yyy")) (re.+ (str.to.re "zz")))) (re.union (re.union (re.+ (str.to.re "A")) (re.+ (str.to.re "BBB"))) (re.+ (re.+ (str.to.re "CC")))))))) (re.+ (re.union (re.* (re.union (re.union (re.union (re.* (str.to.re "DDD")) (re.union (str.to.re "EE") (str.to.re "FF"))) (re.union (re.+ (str.to.re "G")) (re.+ (str.to.re "HHH")))) (re.+ (re.+ (re.union (str.to.re "I") (str.to.re "J")))))) (re.* (re.* (re.* (re.union (re.union (str.to.re "K") (str.to.re "LLL")) (re.* (str.to.re "MM"))))))))))) (re.union (re.union (re.* (re.union (re.+ (re.union (re.* (re.union (re.union (re.* (str.to.re "NNN")) (re.+ (str.to.re "OOO"))) (re.* (re.union (str.to.re "PP") (str.to.re "QQQ"))))) (re.union (re.+ (re.union (re.union (str.to.re "R") (str.to.re "SS")) (re.union (str.to.re "TTT") (str.to.re "UU")))) (re.union (re.union (re.+ (str.to.re "V")) (re.* (str.to.re "WW"))) (re.union (re.union (str.to.re "XX") (str.to.re "YY")) (re.union (str.to.re "Z") (str.to.re "!!"))))))) (re.* (re.* (re.* (re.+ (re.* (re.+ (str.to.re """"""))))))))) (re.* (re.* (re.union (re.* (re.* (re.union (re.union (re.* (str.to.re "###")) (re.union (str.to.re "$") (str.to.re "%%%"))) (re.union (re.* (str.to.re "&")) (re.+ (str.to.re "'")))))) (re.+ (re.* (re.+ (re.+ (re.* (str.to.re "((")))))))))) (re.+ (re.union (re.union (re.+ (re.union (re.+ (re.* (re.union (re.union (str.to.re ")))") (str.to.re "***")) (re.* (str.to.re "++"))))) (re.union (re.union (re.* (re.+ (str.to.re ",,"))) (re.union (re.union (str.to.re "--") (str.to.re "..")) (re.+ (str.to.re "///")))) (re.+ (re.+ (re.union (str.to.re ":::") (str.to.re ";;"))))))) (re.+ (re.* (re.+ (re.union (re.+ (re.+ (str.to.re "<"))) (re.* (re.union (str.to.re "==") (str.to.re ">")))))))) (re.+ (re.* (re.union (re.union (re.* (re.union (re.+ (str.to.re "??")) (re.union (str.to.re "@@@") (str.to.re "[")))) (re.+ (re.* (re.union (str.to.re "\\") (str.to.re "]"))))) (re.union (re.+ (re.union (re.+ (str.to.re "^")) (re.union (str.to.re "_") (str.to.re "`")))) (re.+ (re.* (re.union (str.to.re "{{{") (str.to.re "||")))))))))))))) (re.union (re.* (re.+ (re.union (re.+ (re.* (re.* (re.* (re.union (re.* (re.+ (re.* (re.+ (str.to.re "00"))))) (re.* (re.+ (re.union (re.+ (str.to.re "111")) (re.+ (str.to.re "22")))))))))) (re.union (re.+ (re.+ (re.* (re.* (re.+ (re.* (re.union (re.* (str.to.re "33")) (re.* (str.to.re "44"))))))))) (re.* (re.union (re.+ (re.+ (re.union (re.union (re.* (re.+ (str.to.re "55"))) (re.union (re.union (str.to.re "666") (str.to.re "7")) (re.+ (str.to.re "888")))) (re.+ (re.+ (re.* (str.to.re "99"))))))) (re.+ (re.* (re.union (re.union (re.+ (re.+ (str.to.re "aa"))) (re.union (re.* (str.to.re "b")) (re.* (str.to.re "cc")))) (re.* (re.union (re.* (str.to.re "dd")) (re.union (str.to.re "e") (str.to.re "f"))))))))))))) (re.+ (re.* (re.+ (re.* (re.+ (re.* (re.* (re.* (re.+ (re.+ (re.* (re.* (str.to.re "gg")))))))))))))))))
(assert (<= 15 (str.len var0)))
(check-sat)